p cnf 18 19
-1 17 0 
-2 17 0 
-2 -3 17 0 
-4 -5 17 0 
-6 17 0 
-7 17 0 
-8 15 17 0 
-8 15 18 0 
-9 17 0 
-10 17 0 
-11 17 0 
-12 17 0 
-4 17 0 
-13 -5 17 0 
-14 -3 17 0 
-15 8 17 0 
-10 18 0 
-14 17 0 
-16 17 0 
